Academic license - for non-commercial use only
Optimize a model with 30075 rows, 155051 columns and 330123 nonzeros
Variable types: 155025 continuous, 26 integer (0 binary)
Coefficient statistics:
  Matrix range     [1e+00, 7e+02]
  Objective range  [5e-02, 8e+01]
  Bounds range     [6e-04, 1e+01]
  RHS range        [3e-01, 6e+00]
Found heuristic solution: objective 1144.7008000
Found heuristic solution: objective 1144.7008000
Presolve removed 7172 rows and 69182 columns
Presolve time: 0.82s
Presolved: 22903 rows, 85869 columns, 192874 nonzeros
Variable types: 85843 continuous, 26 integer (26 binary)
Deterministic concurrent LP optimizer: primal and dual simplex
Showing first log only...

Root simplex log...

Iteration    Objective       Primal Inf.    Dual Inf.      Time
   25071    6.7008910e+02   0.000000e+00   3.966832e+02      5s
   26392    6.6798953e+02   0.000000e+00   0.000000e+00      6s
   26392    6.6798953e+02   0.000000e+00   0.000000e+00      6s
Concurrent spin time: 0.00s

Solved with primal simplex
Root relaxation: objective 6.679895e+02, 26392 iterations, 5.59 seconds
    Nodes    |    Current Node    |     Objective Bounds      |     Work
 Expl Unexpl |  Obj  Depth IntInf | Incumbent    BestBd   Gap | It/Node Time

     0     0  671.46452    0   24 1144.70080  671.46452  41.3%     -    6s
H    0     0                     704.7932349  671.46452  4.73%     -    6s
     0     0  671.47036    0   24  704.79323  671.47036  4.73%     -    8s
     0     0  671.47036    0   24  704.79323  671.47036  4.73%     -    9s
     0     0  671.47212    0   24  704.79323  671.47212  4.73%     -   10s
     0     0  671.47267    0   23  704.79323  671.47267  4.73%     -   11s
     0     0  671.47267    0    8  704.79323  671.47267  4.73%     -   19s
     0     0  671.47544    0    8  704.79323  671.47544  4.73%     -   25s
     0     0  671.48547    0    9  704.79323  671.48547  4.73%     -   31s
     0     0  671.49382    0    8  704.79323  671.49382  4.72%     -   35s
     0     0  671.50411    0    8  704.79323  671.50411  4.72%     -   39s
     0     0  671.56806    0    8  704.79323  671.56806  4.71%     -   44s
     0     0  671.77702    0    8  704.79323  671.77702  4.68%     -   57s
     0     0  672.39664    0    8  704.79323  672.39664  4.60%     -   63s
     0     0  673.37191    0    8  704.79323  673.37191  4.46%     -   79s
     0     0  674.30432    0    8  704.79323  674.30432  4.33%     -   88s
     0     0  674.82979    0    8  704.79323  674.82979  4.25%     -   94s
     0     0  675.16172    0    8  704.79323  675.16172  4.20%     -  100s
     0     0  675.70808    0    8  704.79323  675.70808  4.13%     -  115s
     0     0  676.10796    0    8  704.79323  676.10796  4.07%     -  126s
     0     0  676.60584    0    8  704.79323  676.60584  4.00%     -  147s
     0     0  678.19475    0    8  704.79323  678.19475  3.77%     -  163s
     0     0  679.04157    0    8  704.79323  679.04157  3.65%     -  185s
     0     0  679.77457    0    8  704.79323  679.77457  3.55%     -  199s
     0     0  680.57395    0    8  704.79323  680.57395  3.44%     -  215s
     0     0  681.19649    0    8  704.79323  681.19649  3.35%     -  239s
     0     0  682.62931    0    8  704.79323  682.62931  3.14%     -  271s
     0     0  683.76973    0    8  704.79323  683.76973  2.98%     -  289s
     0     0  684.82083    0    8  704.79323  684.82083  2.83%     -  310s
     0     0  686.51579    0    8  704.79323  686.51579  2.59%     -  340s
     0     0  688.18798    0    8  704.79323  688.18798  2.36%     -  370s
     0     0  690.78349    0    8  704.79323  690.78349  1.99%     -  396s
     0     0  693.12131    0    8  704.79323  693.12131  1.66%     -  427s
     0     0  694.63683    0    8  704.79323  694.63683  1.44%     -  475s
     0     0  696.34697    0    5  704.79323  696.34697  1.20%     -  604s
     0     0  696.48735    0    8  704.79323  696.48735  1.18%     -  607s
     0     0  696.49195    0    6  704.79323  696.49195  1.18%     -  608s
     0     0  696.49197    0    6  704.79323  696.49197  1.18%     -  608s
     0     0  696.56127    0    8  704.79323  696.56127  1.17%     -  634s
H    0     0                     698.8230507  696.56127  0.32%     -  634s
     0     0  696.57156    0    7  698.82305  696.57156  0.32%     -  635s
     0     0  696.95053    0    4  698.82305  696.95053  0.27%     -  669s
     0     0  696.98271    0    4  698.82305  696.98271  0.26%     -  670s
     0     0  697.74061    0    4  698.82305  697.74061  0.15%     -  728s
     0     0  697.74061    0    4  698.82305  697.74061  0.15%     -  729s
     0     2  697.74061    0    4  698.82305  697.74061  0.15%     -  731s
     3     2  697.83249    2    3  698.82305  697.74585  0.15%  7216  748s
     5     2     cutoff    3       698.82305  697.83265  0.14%  4332  777s
     9     2     cutoff    5       698.82305  698.15663  0.10%  5804  785s
H   10     2                     698.7661343  698.15663  0.09%  5224  785s
    11     2  698.55137    6    4  698.76613  698.22290  0.08%  7398  810s
    25     2 infeasible   12       698.76613  698.61188  0.02%  3465  815s
    43     1  698.62013   23    2  698.76613  698.61931  0.02%  2075  821s
Cutting planes:
  Implied bound: 62004
  MIR: 62
  Flow cover: 49
Explored 51 nodes (638405 simplex iterations) in 822.06 seconds
Thread count was 4 (of 4 available processors)

Solution count 5: 698.766 698.823 704.793 ... 1144.7

Optimal solution found (tolerance 1.00e-04)
Best objective 6.987661343131e+02, best bound 6.987661343131e+02, gap 0.0000%
Gurobi status= 2